; benchmark generated from python API
(set-info :status unknown)
(declare-fun strlen_72_64 () (_ BitVec 64))
(declare-fun args_0_8 () (_ BitVec 8))
(declare-fun strlen_74_64 () (_ BitVec 64))
(declare-fun args_1_8 () (_ BitVec 8))
(declare-fun strlen_77_64 () (_ BitVec 64))
(declare-fun args_2_8 () (_ BitVec 8))
(declare-fun args_3_8 () (_ BitVec 8))
(declare-fun strlen_80_64 () (_ BitVec 64))
(declare-fun strlen_84_64 () (_ BitVec 64))
(declare-fun args_4_8 () (_ BitVec 8))
(declare-fun args_5_16 () (_ BitVec 16))
(declare-fun strlen_88_64 () (_ BitVec 64))
(declare-fun args_6_16 () (_ BitVec 16))
(declare-fun strlen_92_64 () (_ BitVec 64))
(declare-fun args_7_16 () (_ BitVec 16))
(declare-fun strlen_96_64 () (_ BitVec 64))
(declare-fun strlen_100_64 () (_ BitVec 64))
(declare-fun args_8_16 () (_ BitVec 16))
(declare-fun strlen_105_64 () (_ BitVec 64))
(declare-fun args_9_16 () (_ BitVec 16))
(declare-fun sigaction_oldact_490_1216 () (_ BitVec 1216))
(declare-fun sigaction_oldact_780_1216 () (_ BitVec 1216))
(declare-fun sigaction_oldact_1348_1216 () (_ BitVec 1216))
(assert
 (= (_ bv1 64) strlen_72_64))
(assert
 (let (($x69 (= (_ bv0 8) args_0_8)))
 (not $x69)))
(assert
 (= (_ bv1 64) strlen_74_64))
(assert
 (let (($x347 (= (_ bv0 8) args_1_8)))
 (not $x347)))
(assert
 (= (_ bv1 64) strlen_77_64))
(assert
 (let (($x369 (= (_ bv0 8) args_2_8)))
 (not $x369)))
(assert
 (let (($x415 (= (_ bv0 8) args_3_8)))
 (not $x415)))
(assert
 (= (_ bv1 64) strlen_80_64))
(assert
 (= (_ bv1 64) strlen_84_64))
(assert
 (let (($x222 (= (_ bv0 8) args_4_8)))
 (not $x222)))
(assert
 (let ((?x533 ((_ extract 7 0) args_5_16)))
 (let (($x532 (= (_ bv0 8) ?x533)))
 (not $x532))))
(assert
 (let ((?x333 ((_ extract 15 8) args_5_16)))
 (let (($x537 (= (_ bv0 8) ?x333)))
 (not $x537))))
(assert
 (= (_ bv2 64) strlen_88_64))
(assert
 (let ((?x698 ((_ extract 7 0) args_6_16)))
 (let (($x717 (= (_ bv0 8) ?x698)))
 (not $x717))))
(assert
 (let ((?x425 ((_ extract 15 8) args_6_16)))
 (let (($x701 (= (_ bv0 8) ?x425)))
 (not $x701))))
(assert
 (= (_ bv2 64) strlen_92_64))
(assert
 (let ((?x306 ((_ extract 7 0) args_7_16)))
 (let (($x734 (= (_ bv0 8) ?x306)))
 (not $x734))))
(assert
 (let ((?x498 ((_ extract 15 8) args_7_16)))
 (let (($x787 (= (_ bv0 8) ?x498)))
 (not $x787))))
(assert
 (= (_ bv2 64) strlen_96_64))
(assert
 (let (($x650 (= (_ bv2 64) strlen_100_64)))
 (not $x650)))
(assert
 (let ((?x867 (bvadd (_ bv576460752303357843 64) strlen_100_64)))
 (let ((?x389 ((_ extract 7 0) args_8_16)))
 (let (($x870 (= (_ bv0 8) ?x389)))
 (let ((?x800 (ite $x870 (_ bv576460752303357844 64) (_ bv576460752303357845 64))))
 (let ((?x577 ((_ extract 15 8) args_8_16)))
 (let (($x827 (= (_ bv0 8) ?x577)))
 (let ((?x799 (ite $x827 (_ bv576460752303357843 64) ?x800)))
 (= ?x799 ?x867)))))))))
(assert
 (let ((?x945 ((_ extract 7 0) args_9_16)))
 (let (($x959 (= (_ bv0 8) ?x945)))
 (let ((?x939 (ite $x959 (_ bv576460752303357847 64) (_ bv576460752303357848 64))))
 (let ((?x898 ((_ extract 15 8) args_9_16)))
 (let (($x649 (= (_ bv0 8) ?x898)))
 (let ((?x942 (ite $x649 (_ bv576460752303357846 64) ?x939)))
 (let ((?x943 (bvsub ?x942 (_ bv576460752303357846 64))))
 (= ?x943 strlen_105_64)))))))))
(assert
 (let ((?x24075 ((_ extract 127 120) sigaction_oldact_490_1216)))
 (let ((?x24109 (bvand ?x24075 (_ bv4 8))))
 (= (_ bv0 8) ?x24109))))
(assert
 (let ((?x44635 ((_ extract 127 120) sigaction_oldact_780_1216)))
 (let ((?x44660 (bvand ?x44635 (_ bv4 8))))
 (= (_ bv0 8) ?x44660))))
(assert
 (let ((?x77868 ((_ extract 127 120) sigaction_oldact_1348_1216)))
 (let ((?x77879 (bvand ?x77868 (_ bv4 8))))
 (= (_ bv0 8) ?x77879))))
(minimize args_7_16)
(minimize sigaction_oldact_1348_1216)
(minimize strlen_77_64)
(minimize strlen_92_64)
(minimize strlen_96_64)
(minimize args_6_16)
(maximize sigaction_oldact_490_1216)
(maximize strlen_77_64)
(maximize args_3_8)
(minimize args_1_8)
(maximize args_1_8)
(minimize args_8_16)
(maximize args_5_16)
(maximize sigaction_oldact_1348_1216)
(maximize strlen_96_64)
(maximize strlen_72_64)
(minimize args_5_16)
(minimize strlen_72_64)
(minimize strlen_84_64)
(maximize args_8_16)
(maximize args_4_8)
(maximize sigaction_oldact_780_1216)
(minimize args_2_8)
(maximize strlen_74_64)
(minimize strlen_88_64)
(maximize strlen_92_64)
(minimize strlen_100_64)
(maximize args_9_16)
(maximize args_7_16)
(minimize strlen_105_64)
(maximize strlen_100_64)
(maximize strlen_88_64)
(minimize args_3_8)
(check-sat)
(get-objectives)
